c Mesh Graph
c 4 Rows, 2 columns, capacities in range [0, 15]
p max 10 20
n 1 s
n 10 t
a 1 5 45
a 1 4 45
a 1 3 45
a 1 2 45
a 2 7 13
a 2 6 2
a 2 9 14
a 3 8 11
a 3 7 9
a 3 6 11
a 4 9 10
a 4 8 13
a 4 7 2
a 5 6 8
a 5 9 3
a 5 8 2
a 6 10 45
a 7 10 45
a 8 10 45
a 9 10 45
